(declare-fun temp957_1 () (_ BitVec 64))
(declare-fun var527257 () (_ BitVec 64))
(declare-fun var527256 () (_ BitVec 64))
(declare-fun var134691 () (_ BitVec 64))
(declare-fun var594101 () (_ BitVec 64))
(declare-fun var659958 () (_ BitVec 64))
(declare-fun temp957_2 () (_ BitVec 64))
(declare-fun var2690683 () (_ BitVec 64))
(declare-fun var2690688 () (_ BitVec 64))
(declare-fun var2820316 () (_ BitVec 64))
(declare-fun temp957_3 () (_ BitVec 64))
(declare-fun var3214971 () (_ BitVec 64))
(declare-fun var3214976 () (_ BitVec 64))
(declare-fun var3344604 () (_ BitVec 64))
(declare-fun temp957_5 () (_ BitVec 64))
(declare-fun temp957_4 () (_ BitVec 64))
(declare-fun temp957_7 () (_ BitVec 64))
(declare-fun temp957_6 () (_ BitVec 64))
(declare-fun temp957_9 () (_ BitVec 64))
(declare-fun temp957_8 () (_ BitVec 64))
(declare-fun temp957_11 () (_ BitVec 64))
(declare-fun temp957_10 () (_ BitVec 64))
(declare-fun temp957_13 () (_ BitVec 64))
(declare-fun temp957_12 () (_ BitVec 64))
(declare-fun temp957_15 () (_ BitVec 64))
(declare-fun temp957_14 () (_ BitVec 64))
(declare-fun temp957_17 () (_ BitVec 64))
(declare-fun temp957_16 () (_ BitVec 64))
(declare-fun temp957_19 () (_ BitVec 64))
(declare-fun temp957_18 () (_ BitVec 64))
(declare-fun temp957_21 () (_ BitVec 64))
(declare-fun temp957_20 () (_ BitVec 64))
(declare-fun temp957_23 () (_ BitVec 64))
(declare-fun temp957_22 () (_ BitVec 64))
(declare-fun temp957_25 () (_ BitVec 64))
(declare-fun temp957_24 () (_ BitVec 64))
(declare-fun temp957_27 () (_ BitVec 64))
(declare-fun temp957_26 () (_ BitVec 64))
(declare-fun temp957_29 () (_ BitVec 64))
(declare-fun temp957_28 () (_ BitVec 64))
(declare-fun temp957_31 () (_ BitVec 64))
(declare-fun temp957_30 () (_ BitVec 64))
(declare-fun temp957_33 () (_ BitVec 64))
(declare-fun temp957_32 () (_ BitVec 64))
(declare-fun temp957_35 () (_ BitVec 64))
(declare-fun temp957_34 () (_ BitVec 64))
(declare-fun temp957_37 () (_ BitVec 64))
(declare-fun temp957_36 () (_ BitVec 64))
(declare-fun temp957_39 () (_ BitVec 64))
(declare-fun temp957_38 () (_ BitVec 64))
(declare-fun temp957_41 () (_ BitVec 64))
(declare-fun temp957_40 () (_ BitVec 64))
(declare-fun temp957_43 () (_ BitVec 64))
(declare-fun temp957_42 () (_ BitVec 64))
(declare-fun temp957_45 () (_ BitVec 64))
(declare-fun temp957_44 () (_ BitVec 64))
(declare-fun temp957_47 () (_ BitVec 64))
(declare-fun temp957_46 () (_ BitVec 64))
(declare-fun temp957_49 () (_ BitVec 64))
(declare-fun temp957_48 () (_ BitVec 64))
(declare-fun temp957_51 () (_ BitVec 64))
(declare-fun temp957_50 () (_ BitVec 64))
(declare-fun temp957_53 () (_ BitVec 64))
(declare-fun temp957_52 () (_ BitVec 64))
(declare-fun temp957_55 () (_ BitVec 64))
(declare-fun temp957_54 () (_ BitVec 64))
(declare-fun temp957_57 () (_ BitVec 64))
(declare-fun temp957_56 () (_ BitVec 64))
(declare-fun temp957_58 () (_ BitVec 64))
(declare-fun var4918907 () (_ BitVec 64))
(declare-fun var4918912 () (_ BitVec 64))
(declare-fun var5048540 () (_ BitVec 64))
(assert (= temp957_1 #x0000000000000007))
(assert (= var527257 temp957_1))
(assert (= var527256 var527257))
(assert (= var134691 var527256))
(assert (= var594101 var134691))
(assert (= var659958 var594101))
(assert (= temp957_2 #x0000000000000000))
(assert (= var2690683 temp957_2))
(assert (= var2690688 var2690683))
(assert (= var2820316 var2690688))
(assert (= temp957_3 #x0000000000000000))
(assert (= var3214971 temp957_3))
(assert (= var3214976 var3214971))
(assert (= var3344604 var3214976))
(assert (= temp957_5 #x0000000000000000))
(assert (= temp957_4 temp957_5))
(assert (= temp957_7 #x0000000000000000))
(assert (= temp957_6 temp957_7))
(assert (= temp957_9 #x0000000000000000))
(assert (= temp957_8 temp957_9))
(assert (= temp957_11 #x0000000000000000))
(assert (= temp957_10 temp957_11))
(assert (= temp957_13 #x0000000000000000))
(assert (= temp957_12 temp957_13))
(assert (= temp957_15 #x0000000000000000))
(assert (= temp957_14 temp957_15))
(assert (= temp957_17 #x0000000000000000))
(assert (= temp957_16 temp957_17))
(assert (= temp957_19 #x0000000000000000))
(assert (= temp957_18 temp957_19))
(assert (= temp957_21 #x0000000000000000))
(assert (= temp957_20 temp957_21))
(assert (= temp957_23 #x0000000000000000))
(assert (= temp957_22 temp957_23))
(assert (= temp957_25 #x0000000000000000))
(assert (= temp957_24 temp957_25))
(assert (= temp957_27 #x0000000000000000))
(assert (= temp957_26 temp957_27))
(assert (= temp957_29 #x0000000000000000))
(assert (= temp957_28 temp957_29))
(assert (= temp957_31 #x0000000000000000))
(assert (= temp957_30 temp957_31))
(assert (= temp957_33 #x0000000000000000))
(assert (= temp957_32 temp957_33))
(assert (= temp957_35 #x0000000000000000))
(assert (= temp957_34 temp957_35))
(assert (= temp957_37 #x0000000000000000))
(assert (= temp957_36 temp957_37))
(assert (= temp957_39 #x0000000000000000))
(assert (= temp957_38 temp957_39))
(assert (= temp957_41 #x0000000000000000))
(assert (= temp957_40 temp957_41))
(assert (= temp957_43 #x0000000000000000))
(assert (= temp957_42 temp957_43))
(assert (= temp957_45 #x0000000000000000))
(assert (= temp957_44 temp957_45))
(assert (= temp957_47 #x0000000000000000))
(assert (= temp957_46 temp957_47))
(assert (= temp957_49 #x0000000000000000))
(assert (= temp957_48 temp957_49))
(assert (= temp957_51 #x0000000000000000))
(assert (= temp957_50 temp957_51))
(assert (= temp957_53 #x0000000000000000))
(assert (= temp957_52 temp957_53))
(assert (= temp957_55 #x0000000000000000))
(assert (= temp957_54 temp957_55))
(assert (= temp957_57 #x0000000000000000))
(assert (= temp957_56 temp957_57))
(assert (= temp957_58 #x0000000000000000))
(assert (= var4918907 temp957_58))
(assert (= var4918912 var4918907))
(assert (= var5048540 var4918912))
(model-add temp957_1 () (_ BitVec 64) #x0000000000000007)
(model-add var527257 () (_ BitVec 64) #x0000000000000007)
(model-add var527256 () (_ BitVec 64) #x0000000000000007)
(model-add var134691 () (_ BitVec 64) #x0000000000000007)
(model-add var594101 () (_ BitVec 64) #x0000000000000007)
(model-add var659958 () (_ BitVec 64) #x0000000000000007)
(model-add temp957_2 () (_ BitVec 64) #x0000000000000000)
(model-add var2690683 () (_ BitVec 64) #x0000000000000000)
(model-add var2690688 () (_ BitVec 64) #x0000000000000000)
(model-add var2820316 () (_ BitVec 64) #x0000000000000000)
(model-add temp957_3 () (_ BitVec 64) #x0000000000000000)
(model-add var3214971 () (_ BitVec 64) #x0000000000000000)
(model-add var3214976 () (_ BitVec 64) #x0000000000000000)
(model-add var3344604 () (_ BitVec 64) #x0000000000000000)
(model-add temp957_5 () (_ BitVec 64) #x0000000000000000)
(model-add temp957_4 () (_ BitVec 64) #x0000000000000000)
(model-add temp957_7 () (_ BitVec 64) #x0000000000000000)
(model-add temp957_6 () (_ BitVec 64) #x0000000000000000)
(model-add temp957_9 () (_ BitVec 64) #x0000000000000000)
(model-add temp957_8 () (_ BitVec 64) #x0000000000000000)
(model-add temp957_11 () (_ BitVec 64) #x0000000000000000)
(model-add temp957_10 () (_ BitVec 64) #x0000000000000000)
(model-add temp957_13 () (_ BitVec 64) #x0000000000000000)
(model-add temp957_12 () (_ BitVec 64) #x0000000000000000)
(model-add temp957_15 () (_ BitVec 64) #x0000000000000000)
(model-add temp957_14 () (_ BitVec 64) #x0000000000000000)
(model-add temp957_17 () (_ BitVec 64) #x0000000000000000)
(model-add temp957_16 () (_ BitVec 64) #x0000000000000000)
(model-add temp957_19 () (_ BitVec 64) #x0000000000000000)
(model-add temp957_18 () (_ BitVec 64) #x0000000000000000)
(model-add temp957_21 () (_ BitVec 64) #x0000000000000000)
(model-add temp957_20 () (_ BitVec 64) #x0000000000000000)
(model-add temp957_23 () (_ BitVec 64) #x0000000000000000)
(model-add temp957_22 () (_ BitVec 64) #x0000000000000000)
(model-add temp957_25 () (_ BitVec 64) #x0000000000000000)
(model-add temp957_24 () (_ BitVec 64) #x0000000000000000)
(model-add temp957_27 () (_ BitVec 64) #x0000000000000000)
(model-add temp957_26 () (_ BitVec 64) #x0000000000000000)
(model-add temp957_29 () (_ BitVec 64) #x0000000000000000)
(model-add temp957_28 () (_ BitVec 64) #x0000000000000000)
(model-add temp957_31 () (_ BitVec 64) #x0000000000000000)
(model-add temp957_30 () (_ BitVec 64) #x0000000000000000)
(model-add temp957_33 () (_ BitVec 64) #x0000000000000000)
(model-add temp957_32 () (_ BitVec 64) #x0000000000000000)
(model-add temp957_35 () (_ BitVec 64) #x0000000000000000)
(model-add temp957_34 () (_ BitVec 64) #x0000000000000000)
(model-add temp957_37 () (_ BitVec 64) #x0000000000000000)
(model-add temp957_36 () (_ BitVec 64) #x0000000000000000)
(model-add temp957_39 () (_ BitVec 64) #x0000000000000000)
(model-add temp957_38 () (_ BitVec 64) #x0000000000000000)
(model-add temp957_41 () (_ BitVec 64) #x0000000000000000)
(model-add temp957_40 () (_ BitVec 64) #x0000000000000000)
(model-add temp957_43 () (_ BitVec 64) #x0000000000000000)
(model-add temp957_42 () (_ BitVec 64) #x0000000000000000)
(model-add temp957_45 () (_ BitVec 64) #x0000000000000000)
(model-add temp957_44 () (_ BitVec 64) #x0000000000000000)
(model-add temp957_47 () (_ BitVec 64) #x0000000000000000)
(model-add temp957_46 () (_ BitVec 64) #x0000000000000000)
(model-add temp957_49 () (_ BitVec 64) #x0000000000000000)
(model-add temp957_48 () (_ BitVec 64) #x0000000000000000)
(model-add temp957_51 () (_ BitVec 64) #x0000000000000000)
(model-add temp957_50 () (_ BitVec 64) #x0000000000000000)
(model-add temp957_53 () (_ BitVec 64) #x0000000000000000)
(model-add temp957_52 () (_ BitVec 64) #x0000000000000000)
(model-add temp957_55 () (_ BitVec 64) #x0000000000000000)
(model-add temp957_54 () (_ BitVec 64) #x0000000000000000)
(model-add temp957_57 () (_ BitVec 64) #x0000000000000000)
(model-add temp957_56 () (_ BitVec 64) #x0000000000000000)
(model-add temp957_58 () (_ BitVec 64) #x0000000000000000)
(model-add var4918907 () (_ BitVec 64) #x0000000000000000)
(model-add var4918912 () (_ BitVec 64) #x0000000000000000)
(model-add var5048540 () (_ BitVec 64) #x0000000000000000)

